160513.0
2390
0 2 3 12 13 15 16 20 21 22 24 26 29 30 31 33 34 37 40 45 49 50 52 54 55 56 58 60 62 63 64 66 67 69 71 72 74 76 78 79 81 82 83 85 87 92 93 94 97 99 100 101 102 103 104 105 108 110 113 114 115 116 118 119 125 127 128 129 130 131 133 134 135 139 140 141 142 144 145 146 148 149 151 152 153 157 158 160 162 163 166 168 171 172 173 175 176 177 183 184 187 188 189 190 192 193 195 196 197 198 